%nproc=4
%mem=60gb
#B3LYP/6-31G* fopt test

RotationSameMolecule/Tetrabenzoporphyrin_rotated.xyz

0 1
C       -4.30262    9.09279e-07       -0.68532
C       -4.30262   -9.09279e-07        0.68532
C       -2.89957   -1.46403e-06        1.10343
C       -2.89957    1.46403e-06       -1.10343
N       -2.11177              0.0              0.0
C       -2.45081    3.25415e-06       -2.45264
C       -1.09559    3.83022e-06       -2.88682
N              0.0    2.76942e-06        -2.0873
C        1.09559    3.83022e-06       -2.88682
C       -0.68678    5.58797e-06       -4.21163
C        0.68678    5.58797e-06       -4.21163
C        2.45081    3.25415e-06       -2.45264
C        2.89957    1.46403e-06       -1.10343
N        2.11177              0.0              0.0
C        4.30262   -9.09279e-07        0.68532
C        4.30262    9.09279e-07       -0.68532
C        1.09559   -3.83022e-06        2.88682
N              0.0   -2.76942e-06         2.0873
C       -1.09559   -3.83022e-06        2.88682
C       -0.68678   -5.58797e-06        4.21163
C        0.68678   -5.58797e-06        4.21163
C       -2.45081   -3.25415e-06        2.45264
C        2.45081   -3.25415e-06        2.45264
C        2.89957   -1.46403e-06        1.10343
C        -5.4917    1.87743e-06       -1.41501
C        -5.4917   -1.87743e-06        1.41501
H       -3.21793    4.26939e-06       -3.21782
H              0.0    1.40595e-06       -1.05966
C        -1.4162    7.17048e-06       -5.40436
C         1.4162    7.17048e-06       -5.40436
H        3.21793    4.26939e-06       -3.21782
C         5.4917   -1.87743e-06        1.41501
C         5.4917    1.87743e-06       -1.41501
H              0.0   -1.40595e-06        1.05966
C        -1.4162   -7.17048e-06        5.40436
C         1.4162   -7.17048e-06        5.40436
H       -3.21793   -4.26939e-06        3.21782
H        3.21793   -4.26939e-06        3.21782
C        -0.7058     8.7804e-06       -6.61775
C         0.7058     8.7804e-06       -6.61775
C        6.70585   -9.36598e-07        0.70591
C        6.70585    9.36598e-07       -0.70591
C        -0.7058    -8.7804e-06        6.61775
C         0.7058    -8.7804e-06        6.61775
C       -6.70585    9.36598e-07       -0.70591
C       -6.70585   -9.36598e-07        0.70591
H        -5.4868    3.31192e-06       -2.49618
H        -5.4868   -3.31192e-06        2.49618
H       -2.49751    7.17334e-06       -5.40652
H        2.49751    7.17334e-06       -5.40652
H         5.4868   -3.31192e-06        2.49618
H         5.4868    3.31192e-06       -2.49618
H       -2.49751   -7.17334e-06        5.40652
H        2.49751   -7.17334e-06        5.40652
H       -1.24413     1.0026e-05       -7.55659
H        1.24413     1.0026e-05       -7.55659
H        7.64419   -1.65136e-06        1.24462
H        7.64419    1.65136e-06       -1.24462
H       -1.24413    -1.0026e-05        7.55659
H        1.24413    -1.0026e-05        7.55659
H       -7.64419    1.65136e-06       -1.24462
H       -7.64419   -1.65136e-06        1.24462


