%nproc=4
%mem=60gb
#B3LYP/6-311G** fopt test freq

Sugars/R-R-S-Fructuose.xyz

0 1
 C     0.000000     0.000000     0.000000
 O     0.000000     0.000000     1.413516
 H     0.927487     0.000000     1.705916
 H     0.518025    -0.897246    -0.348146
 H     0.517855     0.896952    -0.346765
 C    -1.421472     0.000000    -0.528838
 O    -2.388894    -0.031101     0.233292
 C    -1.598381     0.004915    -2.046186
 C    -0.298033     0.045392    -2.863171
 C    -0.475503     0.021535    -4.392866
 C     0.868280     0.042020    -5.121945
 H     1.456696    -0.851959    -4.890189
 H     1.450260     0.935079    -4.878545
 O     0.629072     0.051603    -6.525700
 H     1.497715     0.058819    -6.962591
 H    -2.230879     0.865635    -2.288466
 O    -2.322721    -1.160985    -2.418677
 H    -3.177394    -0.875136    -2.784805
 H     0.275090    -0.847631    -2.582168
 O     0.493788     1.167463    -2.484467
 H     1.314964     0.833878    -2.085668
 H    -0.890860    -0.938129    -4.720149
 O    -1.232935     1.156129    -4.812737
 H    -1.994538     0.834382    -5.324640


