%nproc=4
%mem=60gb
#B3LYP/6-31G* fopt test

AsymmetricEnantiomers/s-2-chlorobutane_rotated.xyz

0 1
C    0.523211       -0.154271      0.376133       
C    0.560211       -0.167271      1.92613        
H    1.08721        0.724729       2.29913        
H    1.08721        -1.06227       2.29313        
H    -0.462789      -0.167271      2.33313        
H    1.55721        -0.135271      -0.00586719    
Cl   -0.279789      1.32973        -0.161867      
C    -0.212789      -1.40527       -0.177867      
H    0.275211       -2.31427       0.212133       
C    -0.189789      -1.46027       -1.72787       
H    -1.25879       -1.40027       0.172133       
H    0.847211       -1.46627       -2.09587       
H    -0.713789      -0.594271      -2.16087       
H    -0.690789      -2.37727       -2.07887       


