%nproc=4
%mem=60gb
#B3LYP/6-31G* fopt test freq Symmetry=PG=TD

NeoConformation/neopentane.xyz

0 1
C	0.0500		1.2390		0.8962
C	-0.0000		-0.0000		-0.0000
C	-0.0448		-1.2575		0.8704
C	-1.2510		0.0566		-0.8791
C	1.2457		-0.0381		-0.8875
H	0.9413		1.1987		1.5225
H	0.0819		2.1349		0.2761
H	-0.8374		1.2662		1.5285
H	-0.9322		-1.2304		1.5027
H	-0.0804		-2.1402		0.2319
H	0.8465		-1.2978		1.4966
H	-1.2191		0.9525		-1.4991
H	-1.2866		-0.8261		-1.5175
H	-2.1384		0.0837		-0.2468
H	2.1369		-0.0784		-0.2613
H	1.2100		-0.9208		-1.5260
H	1.2776		0.8578		-1.5076


