%nproc=4
%mem=60gb
#B3LYP/6-31G* fopt test

IsomerC6H14/2,3-dimethyl-butane.xyz

0 1
6	0	0.772699	0
6	0	-0.772699	0
1	-1.061081	1.099805	0
1	1.061081	-1.099805	0
6	0.677277	1.348471	1.251406
6	0.677277	1.348471	-1.251406
6	-0.677277	-1.348471	1.251406
6	-0.677277	-1.348471	-1.251406
1	1.715428	0.976896	1.332227
1	1.715428	0.976896	-1.332227
1	-1.715428	-0.976896	1.332227
1	-1.715428	-0.976896	-1.332227
1	0.718822	2.449726	1.197482
1	0.146677	1.081899	2.178631
1	0.718822	2.449726	-1.197482
1	0.146677	1.081899	-2.178631
1	-0.718822	-2.449726	1.197482
1	-0.146677	-1.081899	2.178631
1	-0.718822	-2.449726	-1.197482
1	-0.146677	-1.081899	-2.178631
			
			


