%nproc=4
%mem=60gb
#B3LYP/6-31G* fopt test

IsomerC6H14/3-methyl-pentane.xyz

0 1
6	0.119927	0.179368	0
6	-1.230526	0.905448	0
1	0.925406	0.943863	0
6	0.298635	-0.686109	1.258723
6	0.298635	-0.686109	-1.258723
6	0.298635	0.093541	2.577281
6	0.298635	0.093541	-2.577281
1	-2.058122	0.171828	0
1	-1.34794	1.548873	0.886812
1	-1.34794	1.548873	-0.886812
1	-0.501251	-1.452408	1.278434
1	-0.501251	-1.452408	-1.278434
1	1.253075	-1.238053	1.168905
1	1.253075	-1.238053	-1.168905
1	0.527975	-0.57058	3.427265
1	0.527975	-0.57058	-3.427265
1	1.060438	0.89262	2.5596
1	-0.677767	0.562663	2.779405
1	1.060438	0.89262	-2.5596
1	-0.677767	0.562663	-2.779405
			


