%nproc=4
%mem=60gb
#B3LYP/6-31G* fopt test

IsomerC6H14/hexane.xyz

0 1
6	1.419885	2.888634	0.0
6	-1.419885	-2.888634	0.0
6	0.008177	0.765371	0.0
6	-0.008177	-0.765371	0.0
6	-1.419885	-1.358196	0.0
6	1.419885	1.358196	0.0
1	-2.444785	-3.295453	0.0
1	2.444785	3.295453	0.0
1	0.900036	3.281314	0.890856
1	0.900036	3.281314	-0.890856
1	-0.900036	-3.281314	-0.890856
1	-0.900036	-3.281314	0.890856
1	1.969434	0.985927	-0.885032
1	1.969434	0.985927	0.885032
1	-1.969434	-0.985927	-0.885032
1	-1.969434	-0.985927	0.885032
1	-0.54312	1.137011	0.88595
1	-0.54312	1.137011	-0.88595
1	0.54312		-1.137011	-0.88595
1	0.54312		-1.137011	0.88595
			
			


