%nproc=4
%mem=60gb
#B3LYP/6-31G* fopt test

SymmetricEnantiomers/r-enan.xyz

0 1
C		0.021		0.004		1.105
I		1.990		-0.022		1.783
H		-0.546		0.881		1.426
F		-0.623		-1.106		1.552
Br		0.008		0.014		-0.840


