%nproc=4
%mem=60gb
#B3LYP/3-21G fopt test

SymmetricEnantiomers/r-enan_rotated.xyz

0 1
C    -0.988297      0.0950661      0.253557       
I    0.980703       0.0690661      0.931557       
H    -1.5553        0.972066       0.574557       
F    -1.6323        -1.01493       0.700557       
Br   -1.0013        0.105066       -1.69144       


