%nproc=4
%mem=60gb
#B3LYP/3-21G fopt test freq

SymmetricEnantiomers/r-tmp_rotated.xyz

0 1
C    -0.483673      -0.197069      -0.881637      
I    0.985464       -0.805296      0.46336        
H    -0.133705      -0.118652      -1.91364       
F    -1.51652       -1.07955       -0.848527      
Br   -1.13017       1.56678        -0.377505      


