%nproc=4
%mem=60gb
#B3LYP/6-31G* fopt test

NeoConformation/tert-butylamine.xyz

0 1
C         -0.00925        0.10916        0.10184
C          1.22767       -0.40970       -0.64234
C         -0.63115       -1.03540        0.90574
C         -1.02795        0.62998       -0.91501
N          0.33417        1.22067        1.04363
H          1.70333        0.37767       -1.24301
H          0.96020       -1.22415       -1.32859
H          1.98517       -0.80356        0.04911
H         -1.52267       -0.70611        1.45593
H          0.07447       -1.45355        1.63671
H         -0.93796       -1.85530        0.24248
H         -1.93155        1.01381       -0.42293
H         -1.34043       -0.17109       -1.59834
H         -0.61494        1.44117       -1.53020
H          0.73646        1.97587        0.52903
H          0.99444        0.89054        1.71596


