%nproc=4
%mem=60gb
#B3LYP/6-311G** fopt test freq

TestTesis/test-R

0 1
 C     0.000000     0.000000     0.000000
 H     0.000000     0.000000     1.089000
 O     1.319934     0.000000    -0.466662
 H     1.767768    -0.775672    -0.149993
 C    -0.683537    -1.183920    -0.483333
 H    -0.683537    -1.183920    -1.572333
 H    -0.170177    -2.073085    -0.120333
 H    -1.710256    -1.183920    -0.120333
 C    -0.683537     1.183920    -0.483333
 C    -0.811447     1.405468    -1.859762
 C    -1.471413     2.548563    -2.326429
 C    -2.003469     3.470110    -1.416667
 C    -1.875559     3.248563    -0.040238
 C    -1.215592     2.105468     0.426429
 H    -0.397584     0.688635    -2.567427
 H    -1.570910     2.720895    -3.397093
 H    -2.516829     4.359275    -1.779667
 H    -2.289422     3.965395     0.667427
 H    -1.116096     1.933135     1.497093




